\ Equation counts
\     Total        E        G        L        N        X        C        B
\	0	0	0	0
\
\ Variable counts
\                  x        b        i      s1s      s2s       sc       si
\     Total     cont   binary  integer     sos1     sos2    scont     sint
\	50	50

\ Nonzero counts
\     Total    const       NL      DLL
\
\
Minimize
 obj: [ - 11.5 x_1 * x_4 - 19.5 x_1 * x_5 + 8.0 x_1 * x_6 - 3.5 x_1 * x_7 - 10.5 x_1 * x_8 - 20.0 x_1 * x_11 - 1.5 x_1 * x_13 + 9.0 x_1 * x_19 + 15.5 x_1 * x_27 - 5.5 x_1 * x_28 + 3.0 x_1 * x_30 - 6.5 x_1 * x_31 - 1.0 x_1 * x_33 + 11.0 x_1 * x_37 + 18.0 x_1 * x_44 - 6.5 x_1 * x_48 + 16.0 x_1 * x_50 + 20.5 x_2 * x_2 + 23.5 x_2 * x_4 - 16.0 x_2 * x_8 + 10.5 x_2 * x_10 + 6.0 x_2 * x_11 - 18.0 x_2 * x_12 + 12.0 x_2 * x_14 + 21.0 x_2 * x_22 - 0.5 x_2 * x_24 + 7.5 x_2 * x_25 + 2.0 x_2 * x_31 + 15.0 x_2 * x_33 + 3.0 x_2 * x_34 + 14.5 x_2 * x_35 - 15.5 x_2 * x_39 - 20.5 x_2 * x_42 + 5.5 x_2 * x_43 + 23.0 x_2 * x_44 + 12.0 x_2 * x_45 + 21.0 x_2 * x_48 + 3.5 x_2 * x_50 - 3.5 x_3 * x_4 + 5.0 x_3 * x_10 - 11.0 x_3 * x_11 + 1.5 x_3 * x_12 + 1.5 x_3 * x_13 + 6.0 x_3 * x_20 + 17.5 x_3 * x_22 - 17.5 x_3 * x_23 - 20.0 x_3 * x_29 + 24.5 x_3 * x_30 + 2.0 x_3 * x_31 - 23.5 x_3 * x_35 - 3.5 x_3 * x_38 + 13.5 x_3 * x_39 + 1.0 x_3 * x_40 - 1.5 x_3 * x_42 + 4.5 x_3 * x_43 - 23.0 x_3 * x_47 - 11.5 x_4 * x_1 + 23.5 x_4 * x_2 - 3.5 x_4 * x_3 - 7.5 x_4 * x_5 - 0.5 x_4 * x_8 + 17.5 x_4 * x_13 + 15.5 x_4 * x_14 - 21.5 x_4 * x_15 + 24.0 x_4 * x_22 + 4.0 x_4 * x_23 + 1.0 x_4 * x_25 - 7.5 x_4 * x_28 - 13.5 x_4 * x_30 + 24.0 x_4 * x_31 + 14.0 x_4 * x_35 - 11.5 x_4 * x_38 - 21.0 x_4 * x_45 - 20.5 x_4 * x_46 + 21.0 x_4 * x_48 - 19.5 x_5 * x_1 - 7.5 x_5 * x_4 - 20.0 x_5 * x_7 - 23.5 x_5 * x_8 + 12.5 x_5 * x_9 - 1.5 x_5 * x_11 - 7.0 x_5 * x_12 + 2.0 x_5 * x_17 - 20.5 x_5 * x_19 - 19.5 x_5 * x_20 + 23.5 x_5 * x_24 - 16.5 x_5 * x_27 - 5.0 x_5 * x_31 + 8.0 x_5 * x_33 - 1.5 x_5 * x_36 + 5.0 x_5 * x_37 - 20.5 x_5 * x_39 + 23.0 x_5 * x_46 + 8.5 x_5 * x_49 + 8.0 x_6 * x_1 - 19.0 x_6 * x_6 - 2.5 x_6 * x_10 + 4.5 x_6 * x_13 + 2.5 x_6 * x_14 - 17.0 x_6 * x_17 - 23.5 x_6 * x_19 - 7.0 x_6 * x_24 + 7.0 x_6 * x_25 - 24.0 x_6 * x_29 + 5.0 x_6 * x_30 - 23.0 x_6 * x_31 - 12.5 x_6 * x_33 + 24.0 x_6 * x_34 - 16.0 x_6 * x_43 - 8.5 x_6 * x_44 - 4.0 x_6 * x_50 - 3.5 x_7 * x_1 - 20.0 x_7 * x_5 - 19.0 x_7 * x_7 - 12.5 x_7 * x_15 - 3.5 x_7 * x_20 + 17.5 x_7 * x_22 - 20.0 x_7 * x_24 + 14.0 x_7 * x_26 - 4.5 x_7 * x_29 - 9.5 x_7 * x_30 + 4.0 x_7 * x_32 + 18.0 x_7 * x_38 + 2.5 x_7 * x_41 + 1.5 x_7 * x_42 - 13.5 x_7 * x_43 + 22.5 x_7 * x_44 - 17.5 x_7 * x_50 - 10.5 x_8 * x_1 - 16.0 x_8 * x_2 - 0.5 x_8 * x_4 - 23.5 x_8 * x_5 - 10.0 x_8 * x_10 - 10.5 x_8 * x_12 + 15.0 x_8 * x_13 - 1.5 x_8 * x_15 - 9.0 x_8 * x_22 - 23.5 x_8 * x_33 - 24.5 x_8 * x_34 + 8.0 x_8 * x_35 + 12.5 x_8 * x_36 + 3.5 x_8 * x_38 - 12.5 x_8 * x_41 + 11.5 x_8 * x_44 + 22.5 x_8 * x_45 - 19.0 x_8 * x_47 + 12.5 x_9 * x_5 - 7.5 x_9 * x_9 + 17.0 x_9 * x_12 + 11.0 x_9 * x_13 + 9.0 x_9 * x_14 + 2.5 x_9 * x_15 - 15.5 x_9 * x_16 - 24.0 x_9 * x_18 - 3.5 x_9 * x_19 + 6.5 x_9 * x_20 + 4.5 x_9 * x_22 + 17.5 x_9 * x_24 - 19.0 x_9 * x_27 - 8.0 x_9 * x_29 - 18.0 x_9 * x_32 + 10.5 x_9 * x_34 - 4.5 x_9 * x_36 - 2.0 x_9 * x_39 - 24.0 x_9 * x_40 + 5.5 x_9 * x_41 + 7.0 x_9 * x_43 + 1.0 x_9 * x_44 - 10.5 x_9 * x_45 - 16.0 x_9 * x_47 + 10.5 x_10 * x_2 + 5.0 x_10 * x_3 - 2.5 x_10 * x_6 - 10.0 x_10 * x_8 - 15.0 x_10 * x_15 - 1.5 x_10 * x_16 - 20.0 x_10 * x_21 + 7.0 x_10 * x_23 - 4.0 x_10 * x_25 + 21.0 x_10 * x_27 - 5.0 x_10 * x_32 + 2.0 x_10 * x_34 + 24.5 x_10 * x_37 + 23.5 x_10 * x_40 - 14.5 x_10 * x_43 + 12.5 x_10 * x_45 - 18.5 x_10 * x_48 + 2.0 x_10 * x_50 - 20.0 x_11 * x_1 + 6.0 x_11 * x_2 - 11.0 x_11 * x_3 - 1.5 x_11 * x_5 + 10.0 x_11 * x_11 - 2.5 x_11 * x_12 - 13.0 x_11 * x_13 + 11.0 x_11 * x_14 - 19.0 x_11 * x_18 - 18.5 x_11 * x_19 + 3.5 x_11 * x_20 - 1.5 x_11 * x_23 + 1.5 x_11 * x_25 + 6.5 x_11 * x_30 - 21.5 x_11 * x_31 + 0.5 x_11 * x_32 + 5.5 x_11 * x_33 + 18.5 x_11 * x_38 - 22.0 x_11 * x_39 - 10.5 x_11 * x_40 - 3.5 x_11 * x_41 + 3.5 x_11 * x_43 - 3.0 x_11 * x_44 - 1.0 x_11 * x_46 - 12.0 x_11 * x_47 + 17.5 x_11 * x_49 - 14.0 x_11 * x_50 - 18.0 x_12 * x_2 + 1.5 x_12 * x_3 - 7.0 x_12 * x_5 - 10.5 x_12 * x_8 + 17.0 x_12 * x_9 - 2.5 x_12 * x_11 - 18.0 x_12 * x_12 - 17.5 x_12 * x_13 - 8.0 x_12 * x_17 - 0.5 x_12 * x_18 + 7.5 x_12 * x_20 - 12.5 x_12 * x_23 + 2.0 x_12 * x_27 + 17.0 x_12 * x_28 - 17.5 x_12 * x_31 - 2.5 x_12 * x_36 - 8.5 x_12 * x_37 - 2.5 x_12 * x_41 - 14.0 x_12 * x_42 + 17.5 x_12 * x_43 - 6.5 x_12 * x_45 + 22.0 x_12 * x_48 - 1.5 x_13 * x_1 + 1.5 x_13 * x_3 + 17.5 x_13 * x_4 + 4.5 x_13 * x_6 + 15.0 x_13 * x_8 + 11.0 x_13 * x_9 - 13.0 x_13 * x_11 - 17.5 x_13 * x_12 + 21.0 x_13 * x_13 - 18.0 x_13 * x_15 + 16.5 x_13 * x_20 - 18.0 x_13 * x_21 + 20.0 x_13 * x_22 - 5.0 x_13 * x_24 - 20.0 x_13 * x_25 + 15.0 x_13 * x_26 - 13.0 x_13 * x_28 + 17.5 x_13 * x_30 + 14.5 x_13 * x_31 + 2.5 x_13 * x_32 - 8.0 x_13 * x_35 + 22.0 x_13 * x_36 + 0.5 x_13 * x_37 - 2.0 x_13 * x_41 - 17.5 x_13 * x_43 + 12.0 x_14 * x_2 + 15.5 x_14 * x_4 + 2.5 x_14 * x_6 + 9.0 x_14 * x_9 + 11.0 x_14 * x_11 - 22.0 x_14 * x_15 - 11.0 x_14 * x_16 - 9.5 x_14 * x_18 - 8.0 x_14 * x_20 - 24.0 x_14 * x_21 + 5.5 x_14 * x_24 - 9.5 x_14 * x_25 - 17.5 x_14 * x_29 - 5.5 x_14 * x_30 + 0.5 x_14 * x_31 + 6.5 x_14 * x_32 + 23.0 x_14 * x_33 - 19.0 x_14 * x_34 - 1.0 x_14 * x_39 + 5.0 x_14 * x_45 - 12.5 x_14 * x_50 - 21.5 x_15 * x_4 - 12.5 x_15 * x_7 - 1.5 x_15 * x_8 + 2.5 x_15 * x_9 - 15.0 x_15 * x_10 - 18.0 x_15 * x_13 - 22.0 x_15 * x_14 + 24.0 x_15 * x_15 + 16.5 x_15 * x_17 - 4.0 x_15 * x_19 - 10.5 x_15 * x_26 - 19.0 x_15 * x_27 + 12.0 x_15 * x_30 - 4.5 x_15 * x_31 - 18.5 x_15 * x_33 + 4.5 x_15 * x_34 + 6.5 x_15 * x_35 - 23.5 x_15 * x_37 - 16.0 x_15 * x_43 - 18.5 x_15 * x_49 - 22.0 x_15 * x_50 - 15.5 x_16 * x_9 - 1.5 x_16 * x_10 - 11.0 x_16 * x_14 + 3.0 x_16 * x_21 + 16.5 x_16 * x_24 - 3.5 x_16 * x_25 + 16.5 x_16 * x_26 - 20.5 x_16 * x_30 - 18.0 x_16 * x_31 - 5.5 x_16 * x_32 - 13.0 x_16 * x_35 + 6.0 x_16 * x_36 - 13.5 x_16 * x_37 + 4.0 x_16 * x_41 + 15.5 x_16 * x_42 + 6.0 x_16 * x_45 + 2.0 x_17 * x_5 - 17.0 x_17 * x_6 - 8.0 x_17 * x_12 + 16.5 x_17 * x_15 - 10.5 x_17 * x_20 - 19.0 x_17 * x_21 - 24.5 x_17 * x_25 + 24.5 x_17 * x_28 + 19.0 x_17 * x_29 + 17.5 x_17 * x_33 - 23.5 x_17 * x_34 + 18.5 x_17 * x_38 + 24.5 x_17 * x_40 - 1.0 x_17 * x_41 - 21.0 x_17 * x_42 + 4.0 x_17 * x_43 - 6.5 x_17 * x_44 + 5.5 x_17 * x_45 - 11.0 x_17 * x_48 - 24.0 x_18 * x_9 - 19.0 x_18 * x_11 - 0.5 x_18 * x_12 - 9.5 x_18 * x_14 - 1.5 x_18 * x_18 + 19.0 x_18 * x_19 + 24.0 x_18 * x_26 - 19.0 x_18 * x_27 + 17.0 x_18 * x_29 + 7.0 x_18 * x_30 + 17.5 x_18 * x_31 - 2.0 x_18 * x_38 + 20.0 x_18 * x_42 + 11.5 x_18 * x_47 + 9.0 x_19 * x_1 - 20.5 x_19 * x_5 - 23.5 x_19 * x_6 - 3.5 x_19 * x_9 - 18.5 x_19 * x_11 - 4.0 x_19 * x_15 + 19.0 x_19 * x_18 - 9.0 x_19 * x_22 + 7.0 x_19 * x_32 + 12.5 x_19 * x_36 - 6.5 x_19 * x_38 - 20.5 x_19 * x_39 - 2.0 x_19 * x_43 + 3.0 x_19 * x_46 - 24.5 x_19 * x_47 + 17.5 x_19 * x_49 - 19.5 x_19 * x_50 + 6.0 x_20 * x_3 - 19.5 x_20 * x_5 - 3.5 x_20 * x_7 + 6.5 x_20 * x_9 + 3.5 x_20 * x_11 + 7.5 x_20 * x_12 + 16.5 x_20 * x_13 - 8.0 x_20 * x_14 - 10.5 x_20 * x_17 - 13.0 x_20 * x_20 - 8.0 x_20 * x_24 + 16.5 x_20 * x_25 - 20.5 x_20 * x_26 + 7.0 x_20 * x_27 + 21.0 x_20 * x_29 + 19.5 x_20 * x_31 - 0.5 x_20 * x_33 - 17.0 x_20 * x_41 + 6.0 x_20 * x_43 + 17.5 x_20 * x_44 + 5.5 x_20 * x_46 + 16.5 x_20 * x_48 - 1.5 x_20 * x_49 + 4.5 x_20 * x_50 - 20.0 x_21 * x_10 - 18.0 x_21 * x_13 - 24.0 x_21 * x_14 + 3.0 x_21 * x_16 - 19.0 x_21 * x_17 - 15.0 x_21 * x_21 + 22.0 x_21 * x_22 + 5.0 x_21 * x_24 - 11.0 x_21 * x_25 - 4.5 x_21 * x_26 + 24.5 x_21 * x_28 + 16.0 x_21 * x_31 + 3.5 x_21 * x_34 + 15.5 x_21 * x_36 - 15.5 x_21 * x_37 + 22.0 x_21 * x_38 - 3.0 x_21 * x_42 + 1.5 x_21 * x_43 - 12.5 x_21 * x_44 + 7.0 x_21 * x_46 + 15.5 x_21 * x_48 + 21.0 x_22 * x_2 + 17.5 x_22 * x_3 + 24.0 x_22 * x_4 + 17.5 x_22 * x_7 - 9.0 x_22 * x_8 + 4.5 x_22 * x_9 + 20.0 x_22 * x_13 - 9.0 x_22 * x_19 + 22.0 x_22 * x_21 - 3.5 x_22 * x_23 - 16.0 x_22 * x_24 - 21.0 x_22 * x_25 - 17.5 x_22 * x_26 + 4.0 x_22 * x_28 + 14.5 x_22 * x_29 + 23.5 x_22 * x_30 - 24.0 x_22 * x_31 - 13.5 x_22 * x_38 - 16.5 x_22 * x_39 + 11.5 x_22 * x_40 + 20.5 x_22 * x_41 + 8.5 x_22 * x_45 - 24.0 x_22 * x_49 - 17.5 x_23 * x_3 + 4.0 x_23 * x_4 + 7.0 x_23 * x_10 - 1.5 x_23 * x_11 - 12.5 x_23 * x_12 - 3.5 x_23 * x_22 - 4.0 x_23 * x_25 + 23.0 x_23 * x_27 - 17.0 x_23 * x_28 - 8.0 x_23 * x_30 - 4.0 x_23 * x_36 - 4.5 x_23 * x_40 - 2.0 x_23 * x_41 + 19.0 x_23 * x_43 - 5.5 x_23 * x_46 - 11.0 x_23 * x_47 + 8.5 x_23 * x_48 - 6.5 x_23 * x_49 - 0.5 x_24 * x_2 + 23.5 x_24 * x_5 - 7.0 x_24 * x_6 - 20.0 x_24 * x_7 + 17.5 x_24 * x_9 - 5.0 x_24 * x_13 + 5.5 x_24 * x_14 + 16.5 x_24 * x_16 - 8.0 x_24 * x_20 + 5.0 x_24 * x_21 - 16.0 x_24 * x_22 - 7.0 x_24 * x_25 - 6.0 x_24 * x_27 - 4.0 x_24 * x_31 + 7.0 x_24 * x_32 + 24.0 x_24 * x_37 - 6.0 x_24 * x_38 + 15.0 x_24 * x_39 - 19.5 x_24 * x_41 + 18.5 x_24 * x_42 - 11.0 x_24 * x_46 + 7.0 x_24 * x_49 + 2.5 x_24 * x_50 + 7.5 x_25 * x_2 + 1.0 x_25 * x_4 + 7.0 x_25 * x_6 - 4.0 x_25 * x_10 + 1.5 x_25 * x_11 - 20.0 x_25 * x_13 - 9.5 x_25 * x_14 - 3.5 x_25 * x_16 - 24.5 x_25 * x_17 + 16.5 x_25 * x_20 - 11.0 x_25 * x_21 - 21.0 x_25 * x_22 - 4.0 x_25 * x_23 - 7.0 x_25 * x_24 + 3.5 x_25 * x_25 + 0.5 x_25 * x_35 + 4.0 x_25 * x_38 + 10.0 x_25 * x_39 + 10.0 x_25 * x_41 + 6.5 x_25 * x_43 + 3.5 x_25 * x_45 - 0.5 x_25 * x_46 - 19.0 x_25 * x_47 - 23.5 x_25 * x_49 + 14.0 x_26 * x_7 + 15.0 x_26 * x_13 - 10.5 x_26 * x_15 + 16.5 x_26 * x_16 + 24.0 x_26 * x_18 - 20.5 x_26 * x_20 - 4.5 x_26 * x_21 - 17.5 x_26 * x_22 - 4.0 x_26 * x_26 + 4.0 x_26 * x_29 - 1.0 x_26 * x_31 - 19.5 x_26 * x_32 + 24.5 x_26 * x_33 + 18.5 x_26 * x_40 - 0.5 x_26 * x_41 + 21.5 x_26 * x_42 + 23.5 x_26 * x_43 + 19.5 x_26 * x_44 + 10.0 x_26 * x_48 - 1.0 x_26 * x_49 + 13.5 x_26 * x_50 + 15.5 x_27 * x_1 - 16.5 x_27 * x_5 - 19.0 x_27 * x_9 + 21.0 x_27 * x_10 + 2.0 x_27 * x_12 - 19.0 x_27 * x_15 - 19.0 x_27 * x_18 + 7.0 x_27 * x_20 + 23.0 x_27 * x_23 - 6.0 x_27 * x_24 + 18.0 x_27 * x_27 + 7.0 x_27 * x_30 + 3.5 x_27 * x_31 + 0.5 x_27 * x_33 - 17.0 x_27 * x_34 + 9.5 x_27 * x_35 - 5.5 x_27 * x_38 - 20.0 x_27 * x_41 + 1.0 x_27 * x_45 - 5.5 x_28 * x_1 - 7.5 x_28 * x_4 + 17.0 x_28 * x_12 - 13.0 x_28 * x_13 + 24.5 x_28 * x_17 + 24.5 x_28 * x_21 + 4.0 x_28 * x_22 - 17.0 x_28 * x_23 + 24.5 x_28 * x_33 + 7.5 x_28 * x_35 + 11.5 x_28 * x_39 - 18.5 x_28 * x_43 + 19.0 x_28 * x_44 + 1.5 x_28 * x_46 - 22.0 x_28 * x_47 + 24.5 x_28 * x_48 - 20.0 x_29 * x_3 - 24.0 x_29 * x_6 - 4.5 x_29 * x_7 - 8.0 x_29 * x_9 - 17.5 x_29 * x_14 + 19.0 x_29 * x_17 + 17.0 x_29 * x_18 + 21.0 x_29 * x_20 + 14.5 x_29 * x_22 + 4.0 x_29 * x_26 - 13.5 x_29 * x_29 - 4.0 x_29 * x_31 + 20.0 x_29 * x_34 - 8.0 x_29 * x_44 - 11.5 x_29 * x_46 + 5.5 x_29 * x_47 + 3.0 x_30 * x_1 + 24.5 x_30 * x_3 - 13.5 x_30 * x_4 + 5.0 x_30 * x_6 - 9.5 x_30 * x_7 + 6.5 x_30 * x_11 + 17.5 x_30 * x_13 - 5.5 x_30 * x_14 + 12.0 x_30 * x_15 - 20.5 x_30 * x_16 + 7.0 x_30 * x_18 + 23.5 x_30 * x_22 - 8.0 x_30 * x_23 + 7.0 x_30 * x_27 - 13.0 x_30 * x_31 - 19.5 x_30 * x_32 + 14.5 x_30 * x_35 - 14.0 x_30 * x_37 + 11.0 x_30 * x_38 - 18.0 x_30 * x_39 - 24.0 x_30 * x_40 + 3.0 x_30 * x_43 - 1.0 x_30 * x_46 - 6.5 x_31 * x_1 + 2.0 x_31 * x_2 + 2.0 x_31 * x_3 + 24.0 x_31 * x_4 - 5.0 x_31 * x_5 - 23.0 x_31 * x_6 - 21.5 x_31 * x_11 - 17.5 x_31 * x_12 + 14.5 x_31 * x_13 + 0.5 x_31 * x_14 - 4.5 x_31 * x_15 - 18.0 x_31 * x_16 + 17.5 x_31 * x_18 + 19.5 x_31 * x_20 + 16.0 x_31 * x_21 - 24.0 x_31 * x_22 - 4.0 x_31 * x_24 - 1.0 x_31 * x_26 + 3.5 x_31 * x_27 - 4.0 x_31 * x_29 - 13.0 x_31 * x_30 - 16.0 x_31 * x_31 + 6.5 x_31 * x_32 + 14.5 x_31 * x_33 - 22.5 x_31 * x_34 - 3.5 x_31 * x_35 + 11.0 x_31 * x_36 + 10.0 x_31 * x_37 + 13.0 x_31 * x_38 - 3.5 x_31 * x_40 + 23.5 x_31 * x_44 + 6.5 x_31 * x_45 - 13.5 x_31 * x_48 + 2.5 x_31 * x_49 + 24.5 x_31 * x_50 + 4.0 x_32 * x_7 - 18.0 x_32 * x_9 - 5.0 x_32 * x_10 + 0.5 x_32 * x_11 + 2.5 x_32 * x_13 + 6.5 x_32 * x_14 - 5.5 x_32 * x_16 + 7.0 x_32 * x_19 + 7.0 x_32 * x_24 - 19.5 x_32 * x_26 - 19.5 x_32 * x_30 + 6.5 x_32 * x_31 + 0.5 x_32 * x_33 - 16.5 x_32 * x_34 + 21.5 x_32 * x_36 + 24.5 x_32 * x_37 + 15.5 x_32 * x_38 - 13.0 x_32 * x_41 + 12.5 x_32 * x_42 + 24.5 x_32 * x_43 - 7.0 x_32 * x_45 - 11.5 x_32 * x_47 - 1.0 x_33 * x_1 + 15.0 x_33 * x_2 + 8.0 x_33 * x_5 - 12.5 x_33 * x_6 - 23.5 x_33 * x_8 + 5.5 x_33 * x_11 + 23.0 x_33 * x_14 - 18.5 x_33 * x_15 + 17.5 x_33 * x_17 - 0.5 x_33 * x_20 + 24.5 x_33 * x_26 + 0.5 x_33 * x_27 + 24.5 x_33 * x_28 + 14.5 x_33 * x_31 + 0.5 x_33 * x_32 - 16.0 x_33 * x_35 - 6.0 x_33 * x_36 + 17.0 x_33 * x_37 - 24.0 x_33 * x_39 + 8.0 x_33 * x_40 - 14.0 x_33 * x_41 + 10.5 x_33 * x_42 + 13.0 x_33 * x_43 + 22.0 x_33 * x_47 + 21.0 x_33 * x_50 + 3.0 x_34 * x_2 + 24.0 x_34 * x_6 - 24.5 x_34 * x_8 + 10.5 x_34 * x_9 + 2.0 x_34 * x_10 - 19.0 x_34 * x_14 + 4.5 x_34 * x_15 - 23.5 x_34 * x_17 + 3.5 x_34 * x_21 - 17.0 x_34 * x_27 + 20.0 x_34 * x_29 - 22.5 x_34 * x_31 - 16.5 x_34 * x_32 - 18.0 x_34 * x_34 - 14.5 x_34 * x_35 - 14.0 x_34 * x_37 + 5.5 x_34 * x_38 + 4.5 x_34 * x_46 + 5.0 x_34 * x_47 + 18.0 x_34 * x_48 - 5.5 x_34 * x_49 + 7.5 x_34 * x_50 + 14.5 x_35 * x_2 - 23.5 x_35 * x_3 + 14.0 x_35 * x_4 + 8.0 x_35 * x_8 - 8.0 x_35 * x_13 + 6.5 x_35 * x_15 - 13.0 x_35 * x_16 + 0.5 x_35 * x_25 + 9.5 x_35 * x_27 + 7.5 x_35 * x_28 + 14.5 x_35 * x_30 - 3.5 x_35 * x_31 - 16.0 x_35 * x_33 - 14.5 x_35 * x_34 + 8.5 x_35 * x_37 + 15.5 x_35 * x_40 - 18.5 x_35 * x_42 + 2.5 x_35 * x_48 + 18.0 x_35 * x_50 - 1.5 x_36 * x_5 + 12.5 x_36 * x_8 - 4.5 x_36 * x_9 - 2.5 x_36 * x_12 + 22.0 x_36 * x_13 + 6.0 x_36 * x_16 + 12.5 x_36 * x_19 + 15.5 x_36 * x_21 - 4.0 x_36 * x_23 + 11.0 x_36 * x_31 + 21.5 x_36 * x_32 - 6.0 x_36 * x_33 + 4.0 x_36 * x_36 + 21.5 x_36 * x_37 + 6.5 x_36 * x_40 - 19.0 x_36 * x_42 - 6.5 x_36 * x_44 - 16.0 x_36 * x_46 + 11.5 x_36 * x_48 - 8.0 x_36 * x_50 + 11.0 x_37 * x_1 + 5.0 x_37 * x_5 + 24.5 x_37 * x_10 - 8.5 x_37 * x_12 + 0.5 x_37 * x_13 - 23.5 x_37 * x_15 - 13.5 x_37 * x_16 - 15.5 x_37 * x_21 + 24.0 x_37 * x_24 - 14.0 x_37 * x_30 + 10.0 x_37 * x_31 + 24.5 x_37 * x_32 + 17.0 x_37 * x_33 - 14.0 x_37 * x_34 + 8.5 x_37 * x_35 + 21.5 x_37 * x_36 + 1.0 x_37 * x_37 - 7.0 x_37 * x_38 + 8.5 x_37 * x_45 - 3.0 x_37 * x_47 + 5.0 x_37 * x_48 - 3.5 x_38 * x_3 - 11.5 x_38 * x_4 + 18.0 x_38 * x_7 + 3.5 x_38 * x_8 + 18.5 x_38 * x_11 + 18.5 x_38 * x_17 - 2.0 x_38 * x_18 - 6.5 x_38 * x_19 + 22.0 x_38 * x_21 - 13.5 x_38 * x_22 - 6.0 x_38 * x_24 + 4.0 x_38 * x_25 - 5.5 x_38 * x_27 + 11.0 x_38 * x_30 + 13.0 x_38 * x_31 + 15.5 x_38 * x_32 + 5.5 x_38 * x_34 - 7.0 x_38 * x_37 - 20.5 x_38 * x_40 - 0.5 x_38 * x_42 + 23.5 x_38 * x_43 - 6.0 x_38 * x_46 - 15.5 x_39 * x_2 + 13.5 x_39 * x_3 - 20.5 x_39 * x_5 - 2.0 x_39 * x_9 - 22.0 x_39 * x_11 - 1.0 x_39 * x_14 - 20.5 x_39 * x_19 - 16.5 x_39 * x_22 + 15.0 x_39 * x_24 + 10.0 x_39 * x_25 + 11.5 x_39 * x_28 - 18.0 x_39 * x_30 - 24.0 x_39 * x_33 - 17.0 x_39 * x_39 + 4.0 x_39 * x_42 + 16.0 x_39 * x_48 - 4.0 x_39 * x_49 + 13.0 x_39 * x_50 + 1.0 x_40 * x_3 - 24.0 x_40 * x_9 + 23.5 x_40 * x_10 - 10.5 x_40 * x_11 + 24.5 x_40 * x_17 + 11.5 x_40 * x_22 - 4.5 x_40 * x_23 + 18.5 x_40 * x_26 - 24.0 x_40 * x_30 - 3.5 x_40 * x_31 + 8.0 x_40 * x_33 + 15.5 x_40 * x_35 + 6.5 x_40 * x_36 - 20.5 x_40 * x_38 + 20.5 x_40 * x_44 - 12.5 x_40 * x_47 - 15.0 x_40 * x_48 + 15.0 x_40 * x_50 + 2.5 x_41 * x_7 - 12.5 x_41 * x_8 + 5.5 x_41 * x_9 - 3.5 x_41 * x_11 - 2.5 x_41 * x_12 - 2.0 x_41 * x_13 + 4.0 x_41 * x_16 - 1.0 x_41 * x_17 - 17.0 x_41 * x_20 + 20.5 x_41 * x_22 - 2.0 x_41 * x_23 - 19.5 x_41 * x_24 + 10.0 x_41 * x_25 - 0.5 x_41 * x_26 - 20.0 x_41 * x_27 - 13.0 x_41 * x_32 - 14.0 x_41 * x_33 + 12.5 x_41 * x_41 - 1.5 x_41 * x_42 - 0.5 x_41 * x_43 - 21.5 x_41 * x_45 - 6.0 x_41 * x_50 - 20.5 x_42 * x_2 - 1.5 x_42 * x_3 + 1.5 x_42 * x_7 - 14.0 x_42 * x_12 + 15.5 x_42 * x_16 - 21.0 x_42 * x_17 + 20.0 x_42 * x_18 - 3.0 x_42 * x_21 + 18.5 x_42 * x_24 + 21.5 x_42 * x_26 + 12.5 x_42 * x_32 + 10.5 x_42 * x_33 - 18.5 x_42 * x_35 - 19.0 x_42 * x_36 - 0.5 x_42 * x_38 + 4.0 x_42 * x_39 - 1.5 x_42 * x_41 + 1.5 x_42 * x_42 + 6.5 x_42 * x_43 - 7.0 x_42 * x_48 + 8.0 x_42 * x_50 + 5.5 x_43 * x_2 + 4.5 x_43 * x_3 - 16.0 x_43 * x_6 - 13.5 x_43 * x_7 + 7.0 x_43 * x_9 - 14.5 x_43 * x_10 + 3.5 x_43 * x_11 + 17.5 x_43 * x_12 - 17.5 x_43 * x_13 - 16.0 x_43 * x_15 + 4.0 x_43 * x_17 - 2.0 x_43 * x_19 + 6.0 x_43 * x_20 + 1.5 x_43 * x_21 + 19.0 x_43 * x_23 + 6.5 x_43 * x_25 + 23.5 x_43 * x_26 - 18.5 x_43 * x_28 + 3.0 x_43 * x_30 + 24.5 x_43 * x_32 + 13.0 x_43 * x_33 + 23.5 x_43 * x_38 - 0.5 x_43 * x_41 + 6.5 x_43 * x_42 + 18.0 x_44 * x_1 + 23.0 x_44 * x_2 - 8.5 x_44 * x_6 + 22.5 x_44 * x_7 + 11.5 x_44 * x_8 + 1.0 x_44 * x_9 - 3.0 x_44 * x_11 - 6.5 x_44 * x_17 + 17.5 x_44 * x_20 - 12.5 x_44 * x_21 + 19.5 x_44 * x_26 + 19.0 x_44 * x_28 - 8.0 x_44 * x_29 + 23.5 x_44 * x_31 - 6.5 x_44 * x_36 + 20.5 x_44 * x_40 - 17.5 x_44 * x_46 - 17.0 x_44 * x_47 - 11.5 x_44 * x_49 + 12.0 x_45 * x_2 - 21.0 x_45 * x_4 + 22.5 x_45 * x_8 - 10.5 x_45 * x_9 + 12.5 x_45 * x_10 - 6.5 x_45 * x_12 + 5.0 x_45 * x_14 + 6.0 x_45 * x_16 + 5.5 x_45 * x_17 + 8.5 x_45 * x_22 + 3.5 x_45 * x_25 + 1.0 x_45 * x_27 + 6.5 x_45 * x_31 - 7.0 x_45 * x_32 + 8.5 x_45 * x_37 - 21.5 x_45 * x_41 + 8.0 x_45 * x_45 + 22.5 x_45 * x_46 + 2.0 x_45 * x_50 - 20.5 x_46 * x_4 + 23.0 x_46 * x_5 - 1.0 x_46 * x_11 + 3.0 x_46 * x_19 + 5.5 x_46 * x_20 + 7.0 x_46 * x_21 - 5.5 x_46 * x_23 - 11.0 x_46 * x_24 - 0.5 x_46 * x_25 + 1.5 x_46 * x_28 - 11.5 x_46 * x_29 - 1.0 x_46 * x_30 + 4.5 x_46 * x_34 - 16.0 x_46 * x_36 - 6.0 x_46 * x_38 - 17.5 x_46 * x_44 + 22.5 x_46 * x_45 - 2.0 x_46 * x_47 - 12.0 x_46 * x_50 - 23.0 x_47 * x_3 - 19.0 x_47 * x_8 - 16.0 x_47 * x_9 - 12.0 x_47 * x_11 + 11.5 x_47 * x_18 - 24.5 x_47 * x_19 - 11.0 x_47 * x_23 - 19.0 x_47 * x_25 - 22.0 x_47 * x_28 + 5.5 x_47 * x_29 - 11.5 x_47 * x_32 + 22.0 x_47 * x_33 + 5.0 x_47 * x_34 - 3.0 x_47 * x_37 - 12.5 x_47 * x_40 - 17.0 x_47 * x_44 - 2.0 x_47 * x_46 + 1.5 x_47 * x_47 - 9.0 x_47 * x_50 - 6.5 x_48 * x_1 + 21.0 x_48 * x_2 + 21.0 x_48 * x_4 - 18.5 x_48 * x_10 + 22.0 x_48 * x_12 - 11.0 x_48 * x_17 + 16.5 x_48 * x_20 + 15.5 x_48 * x_21 + 8.5 x_48 * x_23 + 10.0 x_48 * x_26 + 24.5 x_48 * x_28 - 13.5 x_48 * x_31 + 18.0 x_48 * x_34 + 2.5 x_48 * x_35 + 11.5 x_48 * x_36 + 5.0 x_48 * x_37 + 16.0 x_48 * x_39 - 15.0 x_48 * x_40 - 7.0 x_48 * x_42 - 14.5 x_48 * x_49 + 8.5 x_49 * x_5 + 17.5 x_49 * x_11 - 18.5 x_49 * x_15 + 17.5 x_49 * x_19 - 1.5 x_49 * x_20 - 24.0 x_49 * x_22 - 6.5 x_49 * x_23 + 7.0 x_49 * x_24 - 23.5 x_49 * x_25 - 1.0 x_49 * x_26 + 2.5 x_49 * x_31 - 5.5 x_49 * x_34 - 4.0 x_49 * x_39 - 11.5 x_49 * x_44 - 14.5 x_49 * x_48 + 16.0 x_50 * x_1 + 3.5 x_50 * x_2 - 4.0 x_50 * x_6 - 17.5 x_50 * x_7 + 2.0 x_50 * x_10 - 14.0 x_50 * x_11 - 12.5 x_50 * x_14 - 22.0 x_50 * x_15 - 19.5 x_50 * x_19 + 4.5 x_50 * x_20 + 2.5 x_50 * x_24 + 13.5 x_50 * x_26 + 24.5 x_50 * x_31 + 21.0 x_50 * x_33 + 7.5 x_50 * x_34 + 18.0 x_50 * x_35 - 8.0 x_50 * x_36 + 13.0 x_50 * x_39 + 15.0 x_50 * x_40 - 6.0 x_50 * x_41 + 8.0 x_50 * x_42 + 2.0 x_50 * x_45 - 12.0 x_50 * x_46 - 9.0 x_50 * x_47 ] + 39.0 x_1 + 45.0 x_2 + 0.0 x_3 + 0.0 x_4 + 0.0 x_5 + 0.0 x_6 + 0.0 x_7 + 0.0 x_8 + 45.0 x_9 + 34.0 x_10 + 18.0 x_11 - 20.0 x_12 + 0.0 x_13 + 0.0 x_14 + 0.0 x_15 + 42.0 x_16 + 0.0 x_17 + 0.0 x_18 + 0.0 x_19 + 0.0 x_20 - 27.0 x_21 - 8.0 x_22 + 37.0 x_23 + 0.0 x_24 + 49.0 x_25 + 35.0 x_26 - 32.0 x_27 + 0.0 x_28 + 0.0 x_29 + 0.0 x_30 + 0.0 x_31 - 47.0 x_32 + 25.0 x_33 + 40.0 x_34 + 0.0 x_35 + 6.0 x_36 + 0.0 x_37 + 0.0 x_38 + 0.0 x_39 + 0.0 x_40 + 5.0 x_41 + 40.0 x_42 - 37.0 x_43 + 0.0 x_44 + 0.0 x_45 + 0.0 x_46 + 0.0 x_47 - 17.0 x_48 + 7.0 x_49 + 44.0 x_50

Subject To

Bounds
 x_1 <= 1.0
 x_2 <= 1.0
 x_3 <= 1.0
 x_4 <= 1.0
 x_5 <= 1.0
 x_6 <= 1.0
 x_7 <= 1.0
 x_8 <= 1.0
 x_9 <= 1.0
 x_10 <= 1.0
 x_11 <= 1.0
 x_12 <= 1.0
 x_13 <= 1.0
 x_14 <= 1.0
 x_15 <= 1.0
 x_16 <= 1.0
 x_17 <= 1.0
 x_18 <= 1.0
 x_19 <= 1.0
 x_20 <= 1.0
 x_21 <= 1.0
 x_22 <= 1.0
 x_23 <= 1.0
 x_24 <= 1.0
 x_25 <= 1.0
 x_26 <= 1.0
 x_27 <= 1.0
 x_28 <= 1.0
 x_29 <= 1.0
 x_30 <= 1.0
 x_31 <= 1.0
 x_32 <= 1.0
 x_33 <= 1.0
 x_34 <= 1.0
 x_35 <= 1.0
 x_36 <= 1.0
 x_37 <= 1.0
 x_38 <= 1.0
 x_39 <= 1.0
 x_40 <= 1.0
 x_41 <= 1.0
 x_42 <= 1.0
 x_43 <= 1.0
 x_44 <= 1.0
 x_45 <= 1.0
 x_46 <= 1.0
 x_47 <= 1.0
 x_48 <= 1.0
 x_49 <= 1.0
 x_50 <= 1.0

End